DATASET = "thpack4";
INSTANCE = "081";

WIDTH = 233;
HEIGHT = 220;
LENGTH = 587;

NO_OF_SHAPES = 10;
size = [|
  110,60,55 |
  80,78,71 |
  110,75,50 |
  100,72,40 |
  103,60,32 |
  70,60,49 |
  80,72,62 |
  120,74,67 |
  75,52,37 |
  57,54,48 |
|];

verticality = [|
  0,1,1 |
  1,1,1 |
  0,1,1 |
  0,1,1 |
  0,1,1 |
  1,1,1 |
  1,1,1 |
  1,1,1 |
  0,1,1 |
  1,1,1 |
|];

box_count = [
  9,
  7,
  10,
  10,
  12,
  14,
  10,
  7,
  8,
  17,
];
